(set-logic QF_LRA)
(declare-fun r_3 () Real)
(declare-fun r_4 () Real)
(declare-fun r_5 () Real)
(declare-fun s_0 () Real)
(declare-fun s_1 () Real)
(declare-fun s_2 () Real)
(declare-fun s_3 () Real)
(declare-fun s_4 () Real)
(declare-fun s_5 () Real)
(declare-fun r_6 () Real)
(declare-fun s_6 () Real)
(declare-fun r_7 () Real)
(declare-fun s_7 () Real)
(declare-fun r_8 () Real)
(declare-fun s_8 () Real)
(declare-fun r_9 () Real)
(declare-fun s_9 () Real)
(declare-fun beta_0 () Real)
(declare-fun gamma () Real)
(declare-fun delta () Real)
(declare-fun n () Real)
(declare-fun r_n_9 () Real)
(declare-fun r_n_1 () Real)
(declare-fun r_n_2 () Real)
(declare-fun r_n_3 () Real)
(declare-fun r_n_4 () Real)
(declare-fun r_n_5 () Real)
(declare-fun r_n_6 () Real)
(declare-fun r_n_7 () Real)
(declare-fun r_n_8 () Real)
(declare-fun s_n_1 () Real)
(declare-fun s_n_2 () Real)
(declare-fun s_n_3 () Real)
(declare-fun s_n_4 () Real)
(declare-fun s_n_5 () Real)
(declare-fun s_n_6 () Real)
(declare-fun i_0 () Real)
(declare-fun i_1 () Real)
(declare-fun i_2 () Real)
(declare-fun i_3 () Real)
(declare-fun i_4 () Real)
(declare-fun i_5 () Real)
(declare-fun i_6 () Real)
(declare-fun s_n_7 () Real)
(declare-fun i_7 () Real)
(declare-fun s_n_8 () Real)
(declare-fun i_8 () Real)
(declare-fun s_n_9 () Real)
(declare-fun i_9 () Real)
(declare-fun i_10 () Real)
(declare-fun i_n_9 () Real)
(declare-fun scale_9 () Real)
(declare-fun i_n_8 () Real)
(declare-fun scale_1 () Real)
(declare-fun scale_2 () Real)
(declare-fun scale_3 () Real)
(declare-fun scale_4 () Real)
(declare-fun scale_5 () Real)
(declare-fun scale_6 () Real)
(declare-fun scale_7 () Real)
(declare-fun scale_8 () Real)
(declare-fun i_n_1 () Real)
(declare-fun i_n_2 () Real)
(declare-fun i_n_3 () Real)
(declare-fun i_n_4 () Real)
(declare-fun i_n_5 () Real)
(declare-fun i_n_6 () Real)
(declare-fun i_n_7 () Real)
(declare-fun r_0 () Real)
(declare-fun r_1 () Real)
(declare-fun r_2 () Real)
(assert (let ((.def_0 (= delta 0.0))) (let ((.def_1 (= gamma 0.07142857142857142))) (let ((.def_2 (and .def_1 .def_0))) (let ((.def_3 (+ s_0 i_0))) (let ((.def_4 (+ .def_3 r_0))) (let ((.def_5 (= n .def_4))) (let ((.def_6 (= r_0 1.0))) (let ((.def_7 (= i_0 1.0))) (let ((.def_8 (= s_0 1000.0))) (let ((.def_9 (and .def_8 .def_7 .def_6 .def_5))) (let ((.def_10 (and .def_9 .def_2))) .def_10))))))))))))
(push 1)
(assert (let ((.def_0 (* n 0.1))) (let ((.def_1 (< i_0 .def_0))) .def_1)))
(push 1)
(assert (let ((.def_0 (<= 0.0 i_n_1))) (let ((.def_1 (<= i_n_1 n))) (let ((.def_2 (<= 0.0 s_n_1))) (let ((.def_3 (<= s_n_1 n))) (let ((.def_4 (<= 0.0 r_n_1))) (let ((.def_5 (<= r_n_1 n))) (let ((.def_6 (* gamma i_0))) (let ((.def_7 (* beta_0 s_0))) (let ((.def_8 (* .def_7 i_0))) (let ((.def_9 (- .def_8 .def_6))) (let ((.def_10 (+ .def_9 i_0))) (let ((.def_11 (= i_n_1 .def_10))) (let ((.def_12 (* beta_0 (- 1.0)))) (let ((.def_13 (* .def_12 s_0))) (let ((.def_14 (* .def_13 i_0))) (let ((.def_15 (+ .def_14 s_0))) (let ((.def_16 (= s_n_1 .def_15))) (let ((.def_17 (+ .def_6 r_0))) (let ((.def_18 (= r_n_1 .def_17))) (let ((.def_19 (and .def_18 .def_16 .def_11 .def_5 .def_4 .def_3 .def_2 .def_1 .def_0))) .def_19)))))))))))))))))))))
(push 1)
(assert (let ((.def_0 (<= 0.0 scale_1))) (let ((.def_1 (<= scale_1 1.0))) (let ((.def_2 (+ s_n_1 i_n_1))) (let ((.def_3 (+ .def_2 r_n_1))) (let ((.def_4 (/ n .def_3))) (let ((.def_5 (= scale_1 .def_4))) (let ((.def_6 (and .def_5 .def_1 .def_0))) .def_6))))))))
(push 1)
(assert (let ((.def_0 (<= 0.0 i_1))) (let ((.def_1 (<= i_1 n))) (let ((.def_2 (<= 0.0 s_1))) (let ((.def_3 (<= s_1 n))) (let ((.def_4 (<= 0.0 r_1))) (let ((.def_5 (<= r_1 n))) (let ((.def_6 (* r_n_1 scale_1))) (let ((.def_7 (= r_1 .def_6))) (let ((.def_8 (* i_n_1 scale_1))) (let ((.def_9 (= i_1 .def_8))) (let ((.def_10 (* s_n_1 scale_1))) (let ((.def_11 (= s_1 .def_10))) (let ((.def_12 (and .def_11 .def_9 .def_7 .def_5 .def_4 .def_3 .def_2 .def_1 .def_0))) .def_12))))))))))))))
(push 1)
(assert (let ((.def_0 (* n 0.1))) (let ((.def_1 (< i_1 .def_0))) .def_1)))
(push 1)
(assert (let ((.def_0 (<= 0.0 i_n_2))) (let ((.def_1 (<= i_n_2 n))) (let ((.def_2 (<= 0.0 s_n_2))) (let ((.def_3 (<= s_n_2 n))) (let ((.def_4 (<= 0.0 r_n_2))) (let ((.def_5 (<= r_n_2 n))) (let ((.def_6 (* gamma i_1))) (let ((.def_7 (* beta_0 s_1))) (let ((.def_8 (* .def_7 i_1))) (let ((.def_9 (- .def_8 .def_6))) (let ((.def_10 (+ .def_9 i_1))) (let ((.def_11 (= i_n_2 .def_10))) (let ((.def_12 (* beta_0 (- 1.0)))) (let ((.def_13 (* .def_12 s_1))) (let ((.def_14 (* .def_13 i_1))) (let ((.def_15 (+ .def_14 s_1))) (let ((.def_16 (= s_n_2 .def_15))) (let ((.def_17 (+ .def_6 r_1))) (let ((.def_18 (= r_n_2 .def_17))) (let ((.def_19 (and .def_18 .def_16 .def_11 .def_5 .def_4 .def_3 .def_2 .def_1 .def_0))) .def_19)))))))))))))))))))))
(push 1)
(assert (let ((.def_0 (<= 0.0 scale_2))) (let ((.def_1 (<= scale_2 1.0))) (let ((.def_2 (+ s_n_2 i_n_2))) (let ((.def_3 (+ .def_2 r_n_2))) (let ((.def_4 (/ n .def_3))) (let ((.def_5 (= scale_2 .def_4))) (let ((.def_6 (and .def_5 .def_1 .def_0))) .def_6))))))))
(push 1)
(assert (let ((.def_0 (<= 0.0 i_2))) (let ((.def_1 (<= i_2 n))) (let ((.def_2 (<= 0.0 s_2))) (let ((.def_3 (<= s_2 n))) (let ((.def_4 (<= 0.0 r_2))) (let ((.def_5 (<= r_2 n))) (let ((.def_6 (* r_n_2 scale_2))) (let ((.def_7 (= r_2 .def_6))) (let ((.def_8 (* i_n_2 scale_2))) (let ((.def_9 (= i_2 .def_8))) (let ((.def_10 (* s_n_2 scale_2))) (let ((.def_11 (= s_2 .def_10))) (let ((.def_12 (and .def_11 .def_9 .def_7 .def_5 .def_4 .def_3 .def_2 .def_1 .def_0))) .def_12))))))))))))))
(push 1)
(assert (let ((.def_0 (* n 0.1))) (let ((.def_1 (< i_2 .def_0))) .def_1)))
(push 1)
(assert (let ((.def_0 (<= 0.0 i_n_3))) (let ((.def_1 (<= i_n_3 n))) (let ((.def_2 (<= 0.0 s_n_3))) (let ((.def_3 (<= s_n_3 n))) (let ((.def_4 (<= 0.0 r_n_3))) (let ((.def_5 (<= r_n_3 n))) (let ((.def_6 (* gamma i_2))) (let ((.def_7 (* beta_0 s_2))) (let ((.def_8 (* .def_7 i_2))) (let ((.def_9 (- .def_8 .def_6))) (let ((.def_10 (+ .def_9 i_2))) (let ((.def_11 (= i_n_3 .def_10))) (let ((.def_12 (* beta_0 (- 1.0)))) (let ((.def_13 (* .def_12 s_2))) (let ((.def_14 (* .def_13 i_2))) (let ((.def_15 (+ .def_14 s_2))) (let ((.def_16 (= s_n_3 .def_15))) (let ((.def_17 (+ .def_6 r_2))) (let ((.def_18 (= r_n_3 .def_17))) (let ((.def_19 (and .def_18 .def_16 .def_11 .def_5 .def_4 .def_3 .def_2 .def_1 .def_0))) .def_19)))))))))))))))))))))
(push 1)
(assert (let ((.def_0 (<= 0.0 scale_3))) (let ((.def_1 (<= scale_3 1.0))) (let ((.def_2 (+ s_n_3 i_n_3))) (let ((.def_3 (+ .def_2 r_n_3))) (let ((.def_4 (/ n .def_3))) (let ((.def_5 (= scale_3 .def_4))) (let ((.def_6 (and .def_5 .def_1 .def_0))) .def_6))))))))
(push 1)
(assert (let ((.def_0 (<= 0.0 i_3))) (let ((.def_1 (<= i_3 n))) (let ((.def_2 (<= 0.0 s_3))) (let ((.def_3 (<= s_3 n))) (let ((.def_4 (<= 0.0 r_3))) (let ((.def_5 (<= r_3 n))) (let ((.def_6 (* r_n_3 scale_3))) (let ((.def_7 (= r_3 .def_6))) (let ((.def_8 (* i_n_3 scale_3))) (let ((.def_9 (= i_3 .def_8))) (let ((.def_10 (* s_n_3 scale_3))) (let ((.def_11 (= s_3 .def_10))) (let ((.def_12 (and .def_11 .def_9 .def_7 .def_5 .def_4 .def_3 .def_2 .def_1 .def_0))) .def_12))))))))))))))
(push 1)
(assert (let ((.def_0 (* n 0.1))) (let ((.def_1 (< i_3 .def_0))) .def_1)))
(push 1)
(assert (let ((.def_0 (<= 0.0 i_n_4))) (let ((.def_1 (<= i_n_4 n))) (let ((.def_2 (<= 0.0 s_n_4))) (let ((.def_3 (<= s_n_4 n))) (let ((.def_4 (<= 0.0 r_n_4))) (let ((.def_5 (<= r_n_4 n))) (let ((.def_6 (* gamma i_3))) (let ((.def_7 (* beta_0 s_3))) (let ((.def_8 (* .def_7 i_3))) (let ((.def_9 (- .def_8 .def_6))) (let ((.def_10 (+ .def_9 i_3))) (let ((.def_11 (= i_n_4 .def_10))) (let ((.def_12 (* beta_0 (- 1.0)))) (let ((.def_13 (* .def_12 s_3))) (let ((.def_14 (* .def_13 i_3))) (let ((.def_15 (+ .def_14 s_3))) (let ((.def_16 (= s_n_4 .def_15))) (let ((.def_17 (+ .def_6 r_3))) (let ((.def_18 (= r_n_4 .def_17))) (let ((.def_19 (and .def_18 .def_16 .def_11 .def_5 .def_4 .def_3 .def_2 .def_1 .def_0))) .def_19)))))))))))))))))))))
(push 1)
(assert (let ((.def_0 (<= 0.0 scale_4))) (let ((.def_1 (<= scale_4 1.0))) (let ((.def_2 (+ s_n_4 i_n_4))) (let ((.def_3 (+ .def_2 r_n_4))) (let ((.def_4 (/ n .def_3))) (let ((.def_5 (= scale_4 .def_4))) (let ((.def_6 (and .def_5 .def_1 .def_0))) .def_6))))))))
(push 1)
(assert (let ((.def_0 (<= 0.0 i_4))) (let ((.def_1 (<= i_4 n))) (let ((.def_2 (<= 0.0 s_4))) (let ((.def_3 (<= s_4 n))) (let ((.def_4 (<= 0.0 r_4))) (let ((.def_5 (<= r_4 n))) (let ((.def_6 (* r_n_4 scale_4))) (let ((.def_7 (= r_4 .def_6))) (let ((.def_8 (* i_n_4 scale_4))) (let ((.def_9 (= i_4 .def_8))) (let ((.def_10 (* s_n_4 scale_4))) (let ((.def_11 (= s_4 .def_10))) (let ((.def_12 (and .def_11 .def_9 .def_7 .def_5 .def_4 .def_3 .def_2 .def_1 .def_0))) .def_12))))))))))))))
(push 1)
(assert (let ((.def_0 (* n 0.1))) (let ((.def_1 (< i_4 .def_0))) .def_1)))
(push 1)
(assert (let ((.def_0 (<= 0.0 i_n_5))) (let ((.def_1 (<= i_n_5 n))) (let ((.def_2 (<= 0.0 s_n_5))) (let ((.def_3 (<= s_n_5 n))) (let ((.def_4 (<= 0.0 r_n_5))) (let ((.def_5 (<= r_n_5 n))) (let ((.def_6 (* gamma i_4))) (let ((.def_7 (* beta_0 s_4))) (let ((.def_8 (* .def_7 i_4))) (let ((.def_9 (- .def_8 .def_6))) (let ((.def_10 (+ .def_9 i_4))) (let ((.def_11 (= i_n_5 .def_10))) (let ((.def_12 (* beta_0 (- 1.0)))) (let ((.def_13 (* .def_12 s_4))) (let ((.def_14 (* .def_13 i_4))) (let ((.def_15 (+ .def_14 s_4))) (let ((.def_16 (= s_n_5 .def_15))) (let ((.def_17 (+ .def_6 r_4))) (let ((.def_18 (= r_n_5 .def_17))) (let ((.def_19 (and .def_18 .def_16 .def_11 .def_5 .def_4 .def_3 .def_2 .def_1 .def_0))) .def_19)))))))))))))))))))))
(push 1)
(assert (let ((.def_0 (<= 0.0 scale_5))) (let ((.def_1 (<= scale_5 1.0))) (let ((.def_2 (+ s_n_5 i_n_5))) (let ((.def_3 (+ .def_2 r_n_5))) (let ((.def_4 (/ n .def_3))) (let ((.def_5 (= scale_5 .def_4))) (let ((.def_6 (and .def_5 .def_1 .def_0))) .def_6))))))))
(push 1)
(assert (let ((.def_0 (<= 0.0 i_5))) (let ((.def_1 (<= i_5 n))) (let ((.def_2 (<= 0.0 s_5))) (let ((.def_3 (<= s_5 n))) (let ((.def_4 (<= 0.0 r_5))) (let ((.def_5 (<= r_5 n))) (let ((.def_6 (* r_n_5 scale_5))) (let ((.def_7 (= r_5 .def_6))) (let ((.def_8 (* i_n_5 scale_5))) (let ((.def_9 (= i_5 .def_8))) (let ((.def_10 (* s_n_5 scale_5))) (let ((.def_11 (= s_5 .def_10))) (let ((.def_12 (and .def_11 .def_9 .def_7 .def_5 .def_4 .def_3 .def_2 .def_1 .def_0))) .def_12))))))))))))))
(push 1)
(assert (let ((.def_0 (* n 0.1))) (let ((.def_1 (< i_5 .def_0))) .def_1)))
(push 1)
(assert (let ((.def_0 (<= 0.0 i_n_6))) (let ((.def_1 (<= i_n_6 n))) (let ((.def_2 (<= 0.0 s_n_6))) (let ((.def_3 (<= s_n_6 n))) (let ((.def_4 (<= 0.0 r_n_6))) (let ((.def_5 (<= r_n_6 n))) (let ((.def_6 (* gamma i_5))) (let ((.def_7 (* beta_0 s_5))) (let ((.def_8 (* .def_7 i_5))) (let ((.def_9 (- .def_8 .def_6))) (let ((.def_10 (+ .def_9 i_5))) (let ((.def_11 (= i_n_6 .def_10))) (let ((.def_12 (* beta_0 (- 1.0)))) (let ((.def_13 (* .def_12 s_5))) (let ((.def_14 (* .def_13 i_5))) (let ((.def_15 (+ .def_14 s_5))) (let ((.def_16 (= s_n_6 .def_15))) (let ((.def_17 (+ .def_6 r_5))) (let ((.def_18 (= r_n_6 .def_17))) (let ((.def_19 (and .def_18 .def_16 .def_11 .def_5 .def_4 .def_3 .def_2 .def_1 .def_0))) .def_19)))))))))))))))))))))
(push 1)
(assert (let ((.def_0 (<= 0.0 scale_6))) (let ((.def_1 (<= scale_6 1.0))) (let ((.def_2 (+ s_n_6 i_n_6))) (let ((.def_3 (+ .def_2 r_n_6))) (let ((.def_4 (/ n .def_3))) (let ((.def_5 (= scale_6 .def_4))) (let ((.def_6 (and .def_5 .def_1 .def_0))) .def_6))))))))
(push 1)
(assert (let ((.def_0 (<= 0.0 i_6))) (let ((.def_1 (<= i_6 n))) (let ((.def_2 (<= 0.0 s_6))) (let ((.def_3 (<= s_6 n))) (let ((.def_4 (<= 0.0 r_6))) (let ((.def_5 (<= r_6 n))) (let ((.def_6 (* r_n_6 scale_6))) (let ((.def_7 (= r_6 .def_6))) (let ((.def_8 (* i_n_6 scale_6))) (let ((.def_9 (= i_6 .def_8))) (let ((.def_10 (* s_n_6 scale_6))) (let ((.def_11 (= s_6 .def_10))) (let ((.def_12 (and .def_11 .def_9 .def_7 .def_5 .def_4 .def_3 .def_2 .def_1 .def_0))) .def_12))))))))))))))
(push 1)
(assert (let ((.def_0 (* n 0.1))) (let ((.def_1 (< i_6 .def_0))) .def_1)))
(push 1)
(assert (let ((.def_0 (<= 0.0 i_n_7))) (let ((.def_1 (<= i_n_7 n))) (let ((.def_2 (<= 0.0 s_n_7))) (let ((.def_3 (<= s_n_7 n))) (let ((.def_4 (<= 0.0 r_n_7))) (let ((.def_5 (<= r_n_7 n))) (let ((.def_6 (* gamma i_6))) (let ((.def_7 (* beta_0 s_6))) (let ((.def_8 (* .def_7 i_6))) (let ((.def_9 (- .def_8 .def_6))) (let ((.def_10 (+ .def_9 i_6))) (let ((.def_11 (= i_n_7 .def_10))) (let ((.def_12 (* beta_0 (- 1.0)))) (let ((.def_13 (* .def_12 s_6))) (let ((.def_14 (* .def_13 i_6))) (let ((.def_15 (+ .def_14 s_6))) (let ((.def_16 (= s_n_7 .def_15))) (let ((.def_17 (+ .def_6 r_6))) (let ((.def_18 (= r_n_7 .def_17))) (let ((.def_19 (and .def_18 .def_16 .def_11 .def_5 .def_4 .def_3 .def_2 .def_1 .def_0))) .def_19)))))))))))))))))))))
(push 1)
(assert (let ((.def_0 (<= 0.0 scale_7))) (let ((.def_1 (<= scale_7 1.0))) (let ((.def_2 (+ s_n_7 i_n_7))) (let ((.def_3 (+ .def_2 r_n_7))) (let ((.def_4 (/ n .def_3))) (let ((.def_5 (= scale_7 .def_4))) (let ((.def_6 (and .def_5 .def_1 .def_0))) .def_6))))))))
(push 1)
(assert (let ((.def_0 (<= 0.0 i_7))) (let ((.def_1 (<= i_7 n))) (let ((.def_2 (<= 0.0 s_7))) (let ((.def_3 (<= s_7 n))) (let ((.def_4 (<= 0.0 r_7))) (let ((.def_5 (<= r_7 n))) (let ((.def_6 (* r_n_7 scale_7))) (let ((.def_7 (= r_7 .def_6))) (let ((.def_8 (* i_n_7 scale_7))) (let ((.def_9 (= i_7 .def_8))) (let ((.def_10 (* s_n_7 scale_7))) (let ((.def_11 (= s_7 .def_10))) (let ((.def_12 (and .def_11 .def_9 .def_7 .def_5 .def_4 .def_3 .def_2 .def_1 .def_0))) .def_12))))))))))))))
(push 1)
(assert (let ((.def_0 (* n 0.1))) (let ((.def_1 (< i_7 .def_0))) .def_1)))
(push 1)
(assert (let ((.def_0 (<= 0.0 i_n_8))) (let ((.def_1 (<= i_n_8 n))) (let ((.def_2 (<= 0.0 s_n_8))) (let ((.def_3 (<= s_n_8 n))) (let ((.def_4 (<= 0.0 r_n_8))) (let ((.def_5 (<= r_n_8 n))) (let ((.def_6 (* gamma i_7))) (let ((.def_7 (* beta_0 s_7))) (let ((.def_8 (* .def_7 i_7))) (let ((.def_9 (- .def_8 .def_6))) (let ((.def_10 (+ .def_9 i_7))) (let ((.def_11 (= i_n_8 .def_10))) (let ((.def_12 (* beta_0 (- 1.0)))) (let ((.def_13 (* .def_12 s_7))) (let ((.def_14 (* .def_13 i_7))) (let ((.def_15 (+ .def_14 s_7))) (let ((.def_16 (= s_n_8 .def_15))) (let ((.def_17 (+ .def_6 r_7))) (let ((.def_18 (= r_n_8 .def_17))) (let ((.def_19 (and .def_18 .def_16 .def_11 .def_5 .def_4 .def_3 .def_2 .def_1 .def_0))) .def_19)))))))))))))))))))))
(push 1)
(assert (let ((.def_0 (<= 0.0 scale_8))) (let ((.def_1 (<= scale_8 1.0))) (let ((.def_2 (+ s_n_8 i_n_8))) (let ((.def_3 (+ .def_2 r_n_8))) (let ((.def_4 (/ n .def_3))) (let ((.def_5 (= scale_8 .def_4))) (let ((.def_6 (and .def_5 .def_1 .def_0))) .def_6))))))))
(push 1)
(assert (let ((.def_0 (<= 0.0 i_8))) (let ((.def_1 (<= i_8 n))) (let ((.def_2 (<= 0.0 s_8))) (let ((.def_3 (<= s_8 n))) (let ((.def_4 (<= 0.0 r_8))) (let ((.def_5 (<= r_8 n))) (let ((.def_6 (* r_n_8 scale_8))) (let ((.def_7 (= r_8 .def_6))) (let ((.def_8 (* i_n_8 scale_8))) (let ((.def_9 (= i_8 .def_8))) (let ((.def_10 (* s_n_8 scale_8))) (let ((.def_11 (= s_8 .def_10))) (let ((.def_12 (and .def_11 .def_9 .def_7 .def_5 .def_4 .def_3 .def_2 .def_1 .def_0))) .def_12))))))))))))))
(push 1)
(assert (let ((.def_0 (* n 0.1))) (let ((.def_1 (< i_8 .def_0))) .def_1)))
(push 1)
(assert (let ((.def_0 (<= 0.0 i_n_9))) (let ((.def_1 (<= i_n_9 n))) (let ((.def_2 (<= 0.0 s_n_9))) (let ((.def_3 (<= s_n_9 n))) (let ((.def_4 (<= 0.0 r_n_9))) (let ((.def_5 (<= r_n_9 n))) (let ((.def_6 (* gamma i_8))) (let ((.def_7 (* beta_0 s_8))) (let ((.def_8 (* .def_7 i_8))) (let ((.def_9 (- .def_8 .def_6))) (let ((.def_10 (+ .def_9 i_8))) (let ((.def_11 (= i_n_9 .def_10))) (let ((.def_12 (* beta_0 (- 1.0)))) (let ((.def_13 (* .def_12 s_8))) (let ((.def_14 (* .def_13 i_8))) (let ((.def_15 (+ .def_14 s_8))) (let ((.def_16 (= s_n_9 .def_15))) (let ((.def_17 (+ .def_6 r_8))) (let ((.def_18 (= r_n_9 .def_17))) (let ((.def_19 (and .def_18 .def_16 .def_11 .def_5 .def_4 .def_3 .def_2 .def_1 .def_0))) .def_19)))))))))))))))))))))
(push 1)
(assert (let ((.def_0 (<= 0.0 scale_9))) (let ((.def_1 (<= scale_9 1.0))) (let ((.def_2 (+ s_n_9 i_n_9))) (let ((.def_3 (+ .def_2 r_n_9))) (let ((.def_4 (/ n .def_3))) (let ((.def_5 (= scale_9 .def_4))) (let ((.def_6 (and .def_5 .def_1 .def_0))) .def_6))))))))
(push 1)
(assert (let ((.def_0 (<= 0.0 i_9))) (let ((.def_1 (<= i_9 n))) (let ((.def_2 (<= 0.0 s_9))) (let ((.def_3 (<= s_9 n))) (let ((.def_4 (<= 0.0 r_9))) (let ((.def_5 (<= r_9 n))) (let ((.def_6 (* r_n_9 scale_9))) (let ((.def_7 (= r_9 .def_6))) (let ((.def_8 (* i_n_9 scale_9))) (let ((.def_9 (= i_9 .def_8))) (let ((.def_10 (* s_n_9 scale_9))) (let ((.def_11 (= s_9 .def_10))) (let ((.def_12 (and .def_11 .def_9 .def_7 .def_5 .def_4 .def_3 .def_2 .def_1 .def_0))) .def_12))))))))))))))
(push 1)
(assert (let ((.def_0 (* n 0.1))) (let ((.def_1 (< i_10 .def_0))) .def_1)))
(push 1)
(check-sat)
